NAME : lr204.849046.tour
COMMENT : Cost = 0_849046
COMMENT : Found by LKH [Keld Helsgaun] Fri Sep 15 17:42:01 2017
TYPE : TOUR
DIMENSION : 102
TOUR_SECTION
1
95
96
93
43
58
23
76
57
24
42
16
44
15
45
39
87
17
62
100
88
61
84
9
85
6
18
46
47
48
37
50
65
64
91
33
11
31
71
2
51
34
4
78
69
81
55
26
27
41
59
102
28
53
19
8
83
49
20
12
63
89
32
70
77
13
68
40
54
29
80
82
10
52
21
67
66
72
36
35
79
30
25
56
5
73
75
74
22
3
14
98
38
99
101
92
86
94
60
97
7
90
-1
EOF
